Grasp exp. instance_n_15_m_5_id_1.lp tipoLifted 0 szPool 5 nIteration 20 alpha 0.2 
Academic license - for non-commercial use only
Read LP format model from file ../input/instancesGenerated/instance_n_15_m_5_id_1.lp
Reading time = 0.00 seconds
: 5 rows, 15 columns, 75 nonzeros
Optimize a model with 5 rows, 15 columns and 75 nonzeros
Variable types: 0 continuous, 15 integer (15 binary)
Coefficient statistics:
  Matrix range     [1e+00, 1e+01]
  Objective range  [1e+00, 1e+01]
  Bounds range     [1e+00, 1e+00]
  RHS range        [4e+01, 5e+01]
Found heuristic solution: objective 26.0000000

Explored 0 nodes (0 simplex iterations) in 0.00 seconds
Thread count was 1 (of 8 available processors)

Solution count 1: 26 
No other solutions better than 0

Solution limit reached
Best objective 2.600000000000e+01, best bound -, gap -
C_1:	 7.00 x_1  = 0.000000 + 6.00 x_2  = 1.000000 + 1.00 x_3  = 1.000000 + 2.00 x_4  = 0.500000 + 1.00 x_5  = 0.000000 + 3.00 x_6  = 0.000000 + 4.00 x_7  = 1.000000 + 6.00 x_8  = 0.000000 + 8.00 x_9  = 1.000000 + 10.00 x_10  = 1.000000 + 2.00 x_11  = 1.000000 + 5.00 x_12  = 0.000000 + 10.00 x_13  = 0.000000 + 2.00 x_14  = 0.000000 + 4.00 x_15  = 0.000000 <= 35.00
C_2:	 7.00 x_1  = 0.000000 + 4.00 x_2  = 1.000000 + 10.00 x_3  = 1.000000 + 8.00 x_4  = 0.500000 + 6.00 x_5  = 0.000000 + 3.00 x_6  = 0.000000 + 3.00 x_7  = 1.000000 + 7.00 x_8  = 0.000000 + 6.00 x_9  = 1.000000 + 2.00 x_10  = 1.000000 + 3.00 x_11  = 1.000000 + 3.00 x_12  = 0.000000 + 4.00 x_13  = 0.000000 + 7.00 x_14  = 0.000000 + 6.00 x_15  = 0.000000 <= 39.00
C_3:	 8.00 x_1  = 0.000000 + 3.00 x_2  = 1.000000 + 1.00 x_3  = 1.000000 + 1.00 x_4  = 0.500000 + 6.00 x_5  = 0.000000 + 3.00 x_6  = 0.000000 + 5.00 x_7  = 1.000000 + 10.00 x_8  = 0.000000 + 9.00 x_9  = 1.000000 + 3.00 x_10  = 1.000000 + 9.00 x_11  = 1.000000 + 2.00 x_12  = 0.000000 + 9.00 x_13  = 0.000000 + 10.00 x_14  = 0.000000 + 5.00 x_15  = 0.000000 <= 42.00
C_4:	 4.00 x_1  = 0.000000 + 6.00 x_2  = 1.000000 + 9.00 x_3  = 1.000000 + 4.00 x_4  = 0.500000 + 6.00 x_5  = 0.000000 + 4.00 x_6  = 0.000000 + 8.00 x_7  = 1.000000 + 8.00 x_8  = 0.000000 + 10.00 x_9  = 1.000000 + 3.00 x_10  = 1.000000 + 9.00 x_11  = 1.000000 + 4.00 x_12  = 0.000000 + 6.00 x_13  = 0.000000 + 4.00 x_14  = 0.000000 + 10.00 x_15  = 0.000000 <= 47.00
C_5:	 1.00 x_1  = 0.000000 + 2.00 x_2  = 1.000000 + 5.00 x_3  = 1.000000 + 3.00 x_4  = 0.500000 + 4.00 x_5  = 0.000000 + 10.00 x_6  = 0.000000 + 6.00 x_7  = 1.000000 + 8.00 x_8  = 0.000000 + 9.00 x_9  = 1.000000 + 6.00 x_10  = 1.000000 + 2.00 x_11  = 1.000000 + 9.00 x_12  = 0.000000 + 9.00 x_13  = 0.000000 + 2.00 x_14  = 0.000000 + 9.00 x_15  = 0.000000 <= 42.00
Solution initial: 48.500000 
Number Constraints Used in Cover:5
GRASP Method!
Number cuts repeat: 0
value: 48.500000
Number Constraints Used in Cover:15
GRASP Method!
Number cuts repeat: 0
value: 48.500000
Number Constraints Used in Cover:30
GRASP Method!
Number cuts repeat: 0
value: 48.500000
Number Constraints Used in Cover:42
GRASP Method!
Number cuts repeat: 0
value: 48.500000
Number Constraints Used in Cover:54
GRASP Method!
Number cuts repeat: 0
value: 48.500000
Number Constraints Used in Cover:70
GRASP Method!
Number cuts repeat: 0
value: 48.500000
Number Constraints Used in Cover:84
GRASP Method!
Number cuts repeat: 0
value: 48.500000
Number Constraints Used in Cover:95
GRASP Method!
Number cuts repeat: 0
value: 48.500000
Number Constraints Used in Cover:103
GRASP Method!
Number cuts repeat: 0
value: 48.500000
Number Constraints Used in Cover:108
GRASP Method!
Number cuts repeat: 0
value: 48.500000
Number Constraints Used in Cover:123
GRASP Method!
Number cuts repeat: 0
value: 48.500000
Number Constraints Used in Cover:137
GRASP Method!
Number cuts repeat: 0
value: 48.333333
Number Constraints Used in Cover:144
GRASP Method!
Number cuts repeat: 0
value: 48.333333
Number Constraints Used in Cover:153
GRASP Method!
Number cuts repeat: 0
value: 48.333333
Number Constraints Used in Cover:164
GRASP Method!
Number cuts repeat: 0
value: 48.333333
Number Constraints Used in Cover:185
GRASP Method!
Number cuts repeat: 0
value: 48.333333
Number Constraints Used in Cover:202
GRASP Method!
Number cuts repeat: 0
value: 48.333333
Number Constraints Used in Cover:220
GRASP Method!
Number cuts repeat: 0
value: 48.333333
Number Constraints Used in Cover:235
GRASP Method!
Number cuts repeat: 0
value: 48.333333
Number Constraints Used in Cover:244
GRASP Method!
Number cuts repeat: 0
value: 48.333333
Number Constraints Used in Cover:258
GRASP Method!
Number cuts repeat: 0
value: 48.333333
Number Constraints Used in Cover:267
GRASP Method!
Number cuts repeat: 0
value: 48.333333
Number Constraints Used in Cover:275
GRASP Method!
Number cuts repeat: 0
value: 48.333333
Number Constraints Used in Cover:288
GRASP Method!
Number cuts repeat: 0
value: 48.333333
Number Constraints Used in Cover:302
GRASP Method!
Number cuts repeat: 0
value: 48.333333
Number Constraints Used in Cover:313
GRASP Method!
Number cuts repeat: 0
value: 48.333333
Number Constraints Used in Cover:322
GRASP Method!
Number cuts repeat: 0
value: 48.333333
Number Constraints Used in Cover:331
GRASP Method!
Number cuts repeat: 0
value: 48.333333
Number Constraints Used in Cover:342
GRASP Method!
Number cuts repeat: 0
value: 48.333333
Number Constraints Used in Cover:347
GRASP Method!
Number cuts repeat: 0
value: 48.333333
Number Constraints Used in Cover:353
GRASP Method!
Number cuts repeat: 0
value: 48.333333
Number Constraints Used in Cover:358
GRASP Method!
Number cuts repeat: 0
value: 48.333333
Number Constraints Used in Cover:367
GRASP Method!
Number cuts repeat: 0
value: 48.333333
Number Constraints Used in Cover:374
GRASP Method!
Number cuts repeat: 0
value: 48.333333
Number Constraints Used in Cover:382
GRASP Method!
Number cuts repeat: 0
value: 48.333333
Number Constraints Used in Cover:388
GRASP Method!
Number cuts repeat: 0
value: 48.333333
Number Constraints Used in Cover:393
GRASP Method!
Number cuts repeat: 0
value: 48.333333
Number Constraints Used in Cover:395
GRASP Method!
Number cuts repeat: 0
value: 48.333333
Number Constraints Used in Cover:404
GRASP Method!
Number cuts repeat: 0
value: 48.333333
Number Constraints Used in Cover:411
GRASP Method!
Number cuts repeat: 0
value: 48.333333
Number Constraints Used in Cover:417
GRASP Method!
Number cuts repeat: 0
value: 48.333333
Number Constraints Used in Cover:425
GRASP Method!
Number cuts repeat: 0
value: 48.333333
Number Constraints Used in Cover:432
GRASP Method!
Number cuts repeat: 0
value: 48.333333
Number Constraints Used in Cover:435
GRASP Method!
Number cuts repeat: 0
value: 48.333333
Number Constraints Used in Cover:444
GRASP Method!
Number cuts repeat: 0
value: 48.333333
Number Constraints Used in Cover:459
GRASP Method!
Number cuts repeat: 0
value: 48.333333
Number Constraints Used in Cover:463
GRASP Method!
Number cuts repeat: 0
value: 48.333333
Number Constraints Used in Cover:466
GRASP Method!
Number cuts repeat: 0
value: 48.333333
Number Constraints Used in Cover:469
GRASP Method!
Number cuts repeat: 0
value: 48.333333
Number Constraints Used in Cover:472
GRASP Method!
Number cuts repeat: 0
value: 48.333333
Number Constraints Used in Cover:476
GRASP Method!
Number cuts repeat: 0
value: 48.333333
Number Constraints Used in Cover:478
GRASP Method!
Number cuts repeat: 0
value: 48.333333
Number Constraints Used in Cover:483
GRASP Method!
Number cuts repeat: 0
value: 48.333333
Number Constraints Used in Cover:489
GRASP Method!
Number cuts repeat: 0
value: 48.333333
Number Constraints Used in Cover:492
GRASP Method!
Number cuts repeat: 0
value: 48.333333
Number Constraints Used in Cover:500
GRASP Method!
Number cuts repeat: 0
value: 48.333333
Number Constraints Used in Cover:505
GRASP Method!
Number cuts repeat: 0
value: 48.333333
Number Constraints Used in Cover:510
GRASP Method!
Number cuts repeat: 0
value: 48.333333
Number Constraints Used in Cover:517
GRASP Method!
Number cuts repeat: 0
value: 48.333333
Number Constraints Used in Cover:524
GRASP Method!
Number cuts repeat: 0
value: 48.333333
Number Constraints Used in Cover:527
GRASP Method!
Number cuts repeat: 0
value: 48.333333
Number Constraints Used in Cover:532
GRASP Method!
Number cuts repeat: 0
value: 48.333333
Number Constraints Used in Cover:535
GRASP Method!
Number cuts repeat: 0
value: 48.333333
Number Constraints Used in Cover:538
GRASP Method!
Number cuts repeat: 0
value: 48.333333
Number Constraints Used in Cover:544
GRASP Method!
Number cuts repeat: 0
value: 48.333333
Number Constraints Used in Cover:544
GRASP Method!
Number cuts repeat: 0
value: 48.333333
Number Constraints Used in Cover:549
GRASP Method!
Number cuts repeat: 0
value: 48.333333
Number Constraints Used in Cover:555
GRASP Method!
Number cuts repeat: 0
value: 48.333333
Number Constraints Used in Cover:559
GRASP Method!
Number cuts repeat: 0
value: 48.333333
Number Constraints Used in Cover:559
GRASP Method!
Number cuts repeat: 0
value: 48.333333
Number Constraints Used in Cover:566
GRASP Method!
Number cuts repeat: 0
value: 48.333333
Number Constraints Used in Cover:571
GRASP Method!
Number cuts repeat: 0
value: 48.333333
Number Constraints Used in Cover:571
GRASP Method!
Number cuts repeat: 0
value: 48.333333
Number Constraints Used in Cover:573
GRASP Method!
Number cuts repeat: 0
value: 48.333333
Number Constraints Used in Cover:575
GRASP Method!
Number cuts repeat: 0
value: 48.333333
Number Constraints Used in Cover:583
GRASP Method!
Number cuts repeat: 0
value: 48.333333
Number Constraints Used in Cover:586
GRASP Method!
Number cuts repeat: 0
value: 48.333333
Number Constraints Used in Cover:590
GRASP Method!
Number cuts repeat: 0
value: 48.333333
Number Constraints Used in Cover:590
GRASP Method!
Number cuts repeat: 0
value: 48.333333
Number Constraints Used in Cover:592
GRASP Method!
Number cuts repeat: 0
value: 48.333333
Number Constraints Used in Cover:599
GRASP Method!
Number cuts repeat: 0
value: 48.333333
Number Constraints Used in Cover:601
GRASP Method!
Number cuts repeat: 0
value: 48.333333
Number Constraints Used in Cover:606
GRASP Method!
Number cuts repeat: 0
value: 48.333333
Number Constraints Used in Cover:610
GRASP Method!
Number cuts repeat: 0
value: 48.333333
Number Constraints Used in Cover:610
GRASP Method!
Number cuts repeat: 0
value: 48.333333
Number Constraints Used in Cover:613
GRASP Method!
Number cuts repeat: 0
value: 48.333333
Number Constraints Used in Cover:616
GRASP Method!
Number cuts repeat: 0
value: 48.333333
Number Constraints Used in Cover:618
GRASP Method!
Number cuts repeat: 0
value: 48.333333
Number Constraints Used in Cover:620
GRASP Method!
Number cuts repeat: 0
value: 48.333333
Number Constraints Used in Cover:622
GRASP Method!
Number cuts repeat: 0
value: 48.333333
Number Constraints Used in Cover:622
GRASP Method!
Number cuts repeat: 0
value: 48.333333
Number Constraints Used in Cover:630
GRASP Method!
Number cuts repeat: 0
value: 48.333333
Number Constraints Used in Cover:636
GRASP Method!
Number cuts repeat: 0
value: 48.333333
Number Constraints Used in Cover:642
GRASP Method!
Number cuts repeat: 0
value: 48.333333
Number Constraints Used in Cover:644
GRASP Method!
Number cuts repeat: 0
value: 48.333333
Number Constraints Used in Cover:648
GRASP Method!
Number cuts repeat: 0
value: 48.333333
Number Constraints Used in Cover:652
GRASP Method!
Number cuts repeat: 0
value: 48.333333
Number Constraints Used in Cover:652
GRASP Method!
Number cuts repeat: 0
value: 48.333333
Number Constraints Used in Cover:656
GRASP Method!
Number cuts repeat: 0
value: 48.333333
Number Constraints Used in Cover:659
GRASP Method!
Number cuts repeat: 0
value: 48.333333
Number Constraints Used in Cover:660
GRASP Method!
Number cuts repeat: 0
value: 48.333333
Number Constraints Used in Cover:663
GRASP Method!
Number cuts repeat: 0
value: 48.333333
Number Constraints Used in Cover:665
GRASP Method!
Number cuts repeat: 0
value: 48.333333
Number Constraints Used in Cover:669
GRASP Method!
Number cuts repeat: 0
value: 48.333333
Number Constraints Used in Cover:673
GRASP Method!
Number cuts repeat: 0
value: 48.333333
Number Constraints Used in Cover:679
GRASP Method!
Number cuts repeat: 0
value: 48.333333
Number Constraints Used in Cover:681
GRASP Method!
Number cuts repeat: 0
value: 48.333333
Number Constraints Used in Cover:683
GRASP Method!
Number cuts repeat: 0
value: 48.333333
Number Constraints Used in Cover:685
GRASP Method!
Number cuts repeat: 0
value: 48.333333
Number Constraints Used in Cover:694
GRASP Method!
Number cuts repeat: 0
value: 48.333333
Number Constraints Used in Cover:694
GRASP Method!
Number cuts repeat: 0
value: 48.333333
Number Constraints Used in Cover:695
GRASP Method!
Number cuts repeat: 0
value: 48.333333
Number Constraints Used in Cover:700
GRASP Method!
Number cuts repeat: 0
value: 48.333333
Number Constraints Used in Cover:705
GRASP Method!
Number cuts repeat: 0
value: 48.333333
Number Constraints Used in Cover:709
GRASP Method!
Number cuts repeat: 0
value: 48.333333
Number Constraints Used in Cover:710
GRASP Method!
Number cuts repeat: 0
value: 48.333333
Number Constraints Used in Cover:716
GRASP Method!
Number cuts repeat: 0
value: 48.333333
Number Constraints Used in Cover:720
GRASP Method!
Number cuts repeat: 0
value: 48.333333
Number Constraints Used in Cover:720
GRASP Method!
Number cuts repeat: 0
value: 48.333333
Number Constraints Used in Cover:724
GRASP Method!
Number cuts repeat: 0
value: 48.333333
Number Constraints Used in Cover:731
GRASP Method!
Number cuts repeat: 0
value: 48.333333
Number Constraints Used in Cover:732
GRASP Method!
Number cuts repeat: 0
value: 48.333333
Number Constraints Used in Cover:736
GRASP Method!
Number cuts repeat: 0
value: 48.333333
Number Constraints Used in Cover:741
GRASP Method!
Number cuts repeat: 0
value: 48.333333
Number Cuts Final: 739
